'hugeuniform103'
150 75 75
149
148
147
144
142
141
140
138
136
136
134
132
128
128
127
122
120
119
119
118
114
113
112
108
106
104
104
103
102
100
99
98
97
96
96
96
94
94
91
87
84
78
72
72
70
70
69
64
61
58
52
52
48
44
42
38
37
36
34
33
32
31
31
28
27
21
20
19
17
16
15
11
8
4
2
